p cnf 12 27
c l0 l1 l2 l3 l4 l5 l6 l7 u0 u1 u2 u3
-1 -11 0
-1 -9 0
-1 -12 0
-2 -10 0
-2 -9 0
-2 -11 0
-3 -12 0
-3 -11 0
-3 -10 0
-4 -10 0
-4 -12 0
-4 -9 0
4 3 2 1 0
-7 -11 0
-7 -9 0
7 9 11 0
-8 11 0
-8 -9 0
-8 -10 0
-9 7 0
9 10 -11 8 0
9 11 12 4 0
9 11 8 0
9 11 10 2 0
9 10 -11 7 0
10 11 12 3 0
12 11 9 1 0